;; Preprocessed for Astral solver
(set-info :status sat)
;; variables
(declare-const x0 Loc)
(declare-const x1 Loc)
(declare-const x2 Loc)
(declare-const x3 Loc)
(declare-const x4 Loc)
(declare-const x5 Loc)
(declare-const x6 Loc)
(declare-const x7 Loc)
(declare-const x8 Loc)
(declare-const x9 Loc)
(declare-const x10 Loc)
(declare-const x11 Loc)
(declare-const x12 Loc)
(declare-const x13 Loc)
(declare-const x14 Loc)
(declare-const x15 Loc)
(declare-const x16 Loc)
(declare-const x17 Loc)
(declare-const x18 Loc)
(declare-const x19 Loc)
(declare-const x20 Loc)
(declare-const x21 Loc)
(declare-const x22 Loc)

(assert 
		(sep 
			(= nil nil)
		(sep 
			(pto x1 x5)
			(ls x3 x17 )
			(pto x16 x10)
			(pto x6 x10)
			(ls x12 x11 )
			(pto x10 x11)
			(ls x14 x8 )
			(pto x18 x10)
			(pto x7 x14)
			(pto x2 x18)
			(pto x8 x7)
			(ls x13 x5 )
			(pto x15 x4)
			(ls x17 x5 )
			(pto x5 x14)
			(ls x11 x10 )
			(pto x9 x17)
			(ls x4 x5 )
		)

		)

)

(assert (not 
		(sep 
			(ls x15 x4 )
			(ls x13 x5 )
			(ls x7 x14 )
			(ls x6 x10 )
			(ls x3 x17 )
			(ls x2 x18 )
			(ls x12 x10 )
			(ls x18 x10 )
			(ls x4 x5 )
			(ls x16 x11 )
			(ls x9 x5 )
			(ls x1 x7 )
		)

))

(check-sat)
